(set-info :smt-lib-version 2.6)
(set-logic QF_S)
(set-info :source |
Generated by: Murphy Berzish, Mitja Kulczynski, Federico Mora, Florin Manea, Joel Day, Dirk Nowotka, Vijay Ganesh, Zhengyang Lu
Generated on: 2020-10-01
Description: Translated from a collection of real-world regex queries, AutomataArk, collected by Loris D’Antoni and Fang Wang: https://github.com/lorisdanto/automatark
Application: Evaluate solvers on real-world regex queries
Target solver: Z3str3RE, CVC4, OSTRICH, Z3seq, Z3str3, Z3-Trau
Publications: Berzish, M., Kulczynski, M., Mora, F., Manea, F., Day, J. D., Nowotka, D., & Ganesh, V. (2021, July). An SMT solver for regular expressions and linear arithmetic over string length. In CAV 2021.
|)
(set-info :license "https://creativecommons.org/licenses/by/4.0/")
(set-info :category "industrial")
(set-info :status unsat)

(declare-const X String)
(assert (not (str.in_re X (re.union (re.++ (str.to_re "N") (re.union (str.to_re "B") (str.to_re "L") (str.to_re "S") (str.to_re "T") (str.to_re "U"))) (re.++ (re.union (str.to_re "A") (str.to_re "M") (str.to_re "N")) (str.to_re "B")) (re.++ (re.union (str.to_re "B") (str.to_re "Q")) (str.to_re "C")) (str.to_re "ON") (str.to_re "PE") (str.to_re "SK\u{a}")))))
(assert (str.in_re X (re.++ (str.to_re "/") (re.+ (re.comp (str.to_re "/"))) (str.to_re "\u{a}"))))
(assert (str.in_re X (re.++ (re.union (re.++ (re.union (re.++ (str.to_re "0") (re.range "1" "9")) (re.++ (re.union (str.to_re "1") (str.to_re "2")) (re.range "0" "9")) (re.++ (str.to_re "3") (re.union (str.to_re "0") (str.to_re "1")))) (str.to_re "/") (re.union (re.++ (str.to_re "0") (re.union (str.to_re "1") (str.to_re "3") (str.to_re "5") (str.to_re "7") (str.to_re "8"))) (re.++ (str.to_re "1") (re.union (str.to_re "0") (str.to_re "2")))) (str.to_re "/") (re.union (str.to_re "19") (re.++ (re.range "2" "9") (re.range "0" "9"))) ((_ re.loop 2 2) (re.range "0" "9"))) (re.++ (re.union (re.++ (str.to_re "0") (re.range "1" "9")) (re.++ (re.union (str.to_re "1") (str.to_re "2")) (re.range "0" "9")) (str.to_re "30")) (str.to_re "/") (re.union (re.++ (str.to_re "0") (re.union (str.to_re "1") (str.to_re "3") (str.to_re "4") (str.to_re "5") (str.to_re "6") (str.to_re "7") (str.to_re "8") (str.to_re "9"))) (re.++ (str.to_re "1") (re.union (str.to_re "0") (str.to_re "1") (str.to_re "2")))) (str.to_re "/") (re.union (str.to_re "19") (re.++ (re.range "2" "9") (re.range "0" "9"))) ((_ re.loop 2 2) (re.range "0" "9"))) (re.++ (re.union (re.++ (str.to_re "0") (re.range "1" "9")) (re.++ (str.to_re "1") (re.range "0" "9")) (re.++ (str.to_re "2") (re.range "0" "8"))) (str.to_re "/02/") (re.union (str.to_re "19") (re.++ (re.range "2" "9") (re.range "0" "9"))) ((_ re.loop 2 2) (re.range "0" "9"))) (re.++ (str.to_re "29/02/") (re.union (re.++ (re.union (re.++ (str.to_re "1") (re.range "6" "9")) (re.++ (re.range "2" "9") (re.range "0" "9"))) (re.union (re.++ (str.to_re "0") (re.union (str.to_re "4") (str.to_re "8"))) (re.++ (re.union (str.to_re "2") (str.to_re "4") (str.to_re "6") (str.to_re "8")) (re.union (str.to_re "0") (str.to_re "4") (str.to_re "8"))) (re.++ (re.union (str.to_re "1") (str.to_re "3") (str.to_re "5") (str.to_re "7") (str.to_re "9")) (re.union (str.to_re "2") (str.to_re "6"))))) (re.++ (re.union (str.to_re "16") (re.++ (re.union (str.to_re "2") (str.to_re "4") (str.to_re "6") (str.to_re "8")) (re.union (str.to_re "0") (str.to_re "4") (str.to_re "8"))) (re.++ (re.union (str.to_re "3") (str.to_re "5") (str.to_re "7") (str.to_re "9")) (re.union (str.to_re "2") (str.to_re "6")))) (str.to_re "00"))))) (str.to_re "\u{a}"))))
(assert (str.in_re X (str.to_re "www.onlinecasinoextra.comsearchreslt}{Sysuptime:\u{a}")))
(assert (not (str.in_re X (str.to_re "clvompycem/cen.vcnHost:User-Agent:\u{d}\u{a}\u{a}"))))
(check-sat)

(exit)
